17 1485 21 2 
13 1484 15 2 
13 1484 14 2 
12 1488 14 2 
13 1486 14 2 
13 1483 14 2 
13 1489 14 2 
13 1483 14 2 
13 1487 14 2 
12 1483 14 2 
13 1483 14 2 
12 1490 14 2 
12 1483 14 2 
12 1488 14 2 
12 1483 14 2 
13 1483 14 2 
13 1488 14 2 
13 1483 14 2 
13 1483 14 2 
13 1483 14 2 
12 1483 14 2 
12 1488 14 2 
12 1483 14 2 
13 1483 14 2 
12 1488 14 2 
12 1483 14 2 
13 1488 14 2 
13 1483 14 2 
12 1483 14 2 
13 1488 14 2 
13 1483 14 2 
13 1488 14 2 
13 1484 14 2 
13 1483 14 2 
12 1489 14 2 
13 1483 14 2 
12 1483 14 2 
12 1489 14 2 
12 1483 14 2 
12 1487 14 2 
13 1483 14 2 
13 1483 14 2 
13 1488 14 2 
12 1483 14 2 
13 1486 14 2 
13 1483 14 2 
12 1483 14 2 
12 1487 14 2 
12 1483 14 2 
12 1483 17 2 
13 1484 14 2 
13 1483 14 2 
13 1488 14 2 
12 1483 14 2 
12 1484 14 2 
13 1488 14 2 
13 1483 14 2 
13 1488 14 2 
12 1483 14 2 
13 1483 14 2 
13 1489 14 2 
13 1483 14 2 
13 1488 14 2 
13 1483 14 2 
12 1484 14 2 
12 1487 14 2 
12 1483 14 2 
13 1483 14 2 
13 1488 14 2 
13 1483 14 2 
13 1488 14 2 
13 1483 14 2 
13 1483 14 2 
13 1489 14 2 
12 1483 14 2 
13 1486 14 2 
13 1483 14 2 
13 1483 14 2 
12 1487 14 2 
12 1483 14 2 
13 1487 14 2 
13 1483 14 2 
13 1483 14 2 
13 1490 14 2 
12 1483 14 2 
12 1483 14 2 
12 1489 14 2 
12 1483 14 2 
13 1488 14 2 
12 1483 14 2 
13 1483 14 2 
12 1489 14 2 
13 1483 14 2 
12 1487 14 2 
13 1483 14 2 
12 1483 14 2 
12 1487 14 2 
13 1483 14 2 
12 1484 14 2 
16 1483 14 2 
13 1483 14 2 
12 1489 14 2 
13 1483 14 2 
13 1483 14 2 
13 1492 14 2 
12 1483 14 2 
13 1487 14 2 
13 1483 14 2 
12 1483 14 2 
12 1489 14 2 
13 1483 14 2 
13 1487 14 2 
12 1483 14 2 
13 1483 14 2 
13 1489 16 2 
13 1484 14 2 
13 1483 14 2 
12 1490 14 2 
13 1483 14 2 
13 1488 14 2 
13 1482 14 2 
13 1483 14 2 
13 1489 14 2 
12 1483 14 2 
13 1487 14 2 
13 1499 14 2 
13 1482 14 2 
13 1489 14 2 
13 1483 14 2 
13 1488 14 2 
13 1483 14 2 
12 1483 14 2 
12 1487 14 2 
13 1483 14 2 
12 1483 14 2 
13 1488 14 2 
13 1483 14 2 
13 1487 14 2 
12 1483 14 2 
12 1483 14 2 
12 1490 14 2 
12 1483 14 2 
13 1487 14 2 
13 1483 14 2 
12 1483 14 2 
13 1487 14 2 
13 1483 14 2 
13 1483 14 2 
12 1489 14 2 
12 1483 14 2 
13 1488 14 2 
12 1483 14 2 
12 1483 14 2 
13 1489 14 2 
13 1483 14 2 
13 1487 14 2 
12 1483 14 2 
13 1483 14 2 
13 1490 14 2 
12 1483 14 2 
13 1488 14 2 
13 1483 14 2 
13 1483 14 2 
13 1487 14 2 
12 1483 14 2 
13 1487 14 2 
13 1490 14 2 
13 1483 14 2 
13 1488 14 2 
13 1483 14 2 
13 1483 14 2 
12 1489 14 2 
13 1483 14 2 
13 1488 14 2 
13 1483 14 2 
12 1483 14 2 
12 1488 14 2 
13 1483 14 2 
12 1483 14 2 
13 1483 14 2 
13 1483 14 2 
13 1487 14 2 
13 1483 14 2 
13 1483 14 2 
13 1488 14 2 
13 1483 14 2 
12 1487 14 2 
13 1483 14 2 
13 1482 14 2 
12 1488 14 2 
12 1483 14 2 
13 1486 14 2 
13 1483 14 2 
13 1483 14 2 
13 1487 14 2 
13 1483 14 2 
13 1483 14 2 
13 1488 14 2 
12 1483 14 2 
13 1489 14 2 
13 1483 14 2 
12 1483 14 2 
13 1489 14 2 
12 1483 14 2 
13 1491 14 2 
13 1483 14 2 
12 1483 14 2 
13 1490 14 2 
13 1483 14 2 
12 1487 14 2 
13 1482 14 2 
13 1483 14 2 
13 1491 14 2 
12 1483 14 2 
12 1483 14 2 
16 1483 14 2 
13 1483 14 2 
12 1487 14 2 
13 1483 14 2 
12 1483 14 2 
12 1489 14 2 
13 1483 14 2 
13 1489 14 2 
13 1483 14 2 
13 1483 14 2 
13 1487 14 2 
12 1483 14 2 
12 1487 14 2 
13 1483 14 2 
12 1483 14 2 
12 1488 14 2 
13 1483 14 2 
13 1483 14 2 
13 1490 14 2 
13 1483 14 2 
12 1487 14 2 
12 1483 14 2 
12 1483 14 2 
13 1488 14 2 
13 1483 14 2 
13 1487 14 2 
13 1483 14 2 
12 1483 14 2 
13 1488 14 2 
13 1483 14 2 
12 1483 14 2 
13 1483 14 2 
13 1483 14 2 
13 1489 14 2 
12 1483 14 2 
13 1483 14 2 
12 1499 14 2 
13 1483 14 2 
12 1487 14 2 
13 1483 14 2 
13 1483 14 2 
12 1489 14 2 
13 1483 14 2 
12 1488 14 2 
13 1483 14 2 
13 1483 14 2 
13 1488 14 2 
12 1483 14 2 
13 1482 14 2 
12 1489 14 2 
12 1483 14 2 
12 1487 14 2 
13 1483 14 2 
13 1483 14 2 
12 1488 14 2 
13 1483 14 2 
13 1487 14 2 
12 1483 14 2 
13 1483 14 2 
12 1488 14 2 
13 1483 14 2 
12 1487 15 2 
13 1485 14 2 
13 1483 14 2 
12 1487 14 2 
13 1483 14 2 
13 1483 14 2 
12 1490 14 2 
13 1483 14 2 
13 1487 14 2 
13 1484 14 2 
13 1483 14 2 
12 1490 14 2 
12 1483 14 2 
13 1488 14 2 
13 1483 14 2 
13 1483 14 2 
13 1489 14 2 
13 1484 14 2 
13 1483 14 2 
12 1489 14 2 
12 1484 14 2 
12 1487 14 2 
13 1483 14 2 
12 1483 14 2 
13 1488 14 2 
13 1483 14 2 
12 1488 14 2 
13 1483 14 2 
12 1486 14 2 
13 1489 14 2 
12 1483 14 2 
12 1487 14 2 
13 1484 14 2 
12 1483 14 2 
13 1488 14 2 
13 1483 14 2 
13 1483 14 2 
12 1490 14 2 
13 1484 14 2 
13 1487 14 2 
13 1483 14 2 
13 1484 14 2 
13 1488 14 2 
13 1483 14 2 
12 1487 14 2 
13 1483 14 2 
12 1483 14 2 
12 1487 14 2 
13 1483 14 2 
13 1483 14 2 
13 1489 14 2 
13 1484 14 2 
12 1488 14 2 
13 1483 14 2 
13 1486 14 2 
12 1489 14 2 
13 1484 14 2 
12 1487 14 2 
13 1483 14 2 
13 1483 14 2 
13 1489 14 2 
13 1483 14 2 
12 1488 14 2 
13 1483 14 2 
12 1483 14 2 
12 1486 14 2 
13 1483 14 2 
13 1483 14 2 
13 1491 14 2 
13 1484 14 2 
13 1489 14 2 
13 1483 14 2 
12 1483 14 2 
12 1490 14 2 
12 1483 14 2 
12 1488 14 2 
12 1484 14 2 
12 1483 14 2 
12 1487 14 2 
12 1483 14 2 
12 1483 14 2 
12 1488 14 2 
12 1483 14 2 
12 1487 14 2 
13 1483 14 2 
12 1483 14 2 
12 1489 14 2 
13 1483 14 2 
13 1488 14 2 
13 1483 14 2 
12 1483 14 2 
13 1489 14 2 
12 1483 14 2 
12 1488 14 2 
13 1483 14 2 
13 1483 14 2 
13 1488 14 2 
13 1483 14 2 
12 1483 14 2 
12 1489 14 2 
12 1483 14 2 
13 1488 14 2 
13 1484 14 2 
12 1487 14 2 
12 1490 14 2 
13 1483 14 2 
12 1487 14 2 
13 1483 14 2 
12 1484 14 2 
12 1489 14 2 
13 1483 14 2 
12 1484 14 2 
13 1483 14 2 
13 1486 14 2 
13 1489 14 2 
13 1484 14 2 
12 1483 14 2 
12 1490 14 2 
12 1483 14 2 
13 1487 14 2 
13 1483 14 2 
13 1484 14 2 
12 1490 14 2 
13 1484 14 2 
13 1488 14 2 
13 1483 14 2 
12 1483 14 2 
13 1488 14 2 
13 1486 14 2 
12 1487 14 2 
12 1483 14 2 
13 1483 14 2 
13 1487 14 2 
13 1484 14 2 
13 1483 14 2 
13 1489 14 2 
12 1484 14 2 
13 1487 14 2 
12 1483 14 2 
13 1483 14 2 
13 1492 14 2 
13 1483 14 2 
12 1488 14 2 
13 1484 14 2 
13 1485 14 2 
13 1489 14 2 
13 1484 14 2 
12 1483 19 2 
13 1484 14 2 
12 1483 14 2 
13 1488 14 2 
12 1483 14 2 
13 1484 14 2 
13 1490 14 2 
13 1483 14 2 
13 1488 14 2 
12 1484 14 2 
13 1483 14 2 
13 1490 14 2 
12 1483 14 2 
13 1487 14 2 
13 1484 14 2 
13 1483 14 2 
12 1488 14 2 
13 1484 14 2 
12 1484 14 2 
13 1489 14 2 
13 1484 14 2 
12 1487 14 2 
12 1484 14 2 
13 1483 14 2 
13 1490 14 2 
13 1483 14 2 
13 1488 14 2 
13 1483 14 2 
12 1484 14 2 
13 1489 14 2 
12 1484 14 2 
13 1487 14 2 
12 1484 14 2 
13 1484 14 2 
12 1488 14 2 
13 1483 14 2 
12 1484 14 2 
12 1492 14 2 
12 1484 14 2 
13 1488 14 2 
12 1484 14 2 
12 1483 14 2 
13 1490 14 2 
13 1483 14 2 
12 1487 14 2 
12 1484 14 2 
13 1484 14 2 
13 1490 14 2 
12 1484 14 2 
13 1483 14 2 
13 1489 14 2 
13 1484 14 2 
13 1487 14 2 
12 1484 14 2 
13 1483 14 2 
13 1493 14 2 
13 1484 14 2 
13 1489 14 2 
12 1484 14 2 
12 1483 14 2 
12 1490 14 2 
12 1483 14 2 
13 1487 14 2 
12 1485 14 2 
13 1483 14 2 
13 1489 14 2 
12 1483 14 2 
12 1483 14 2 
12 1490 14 2 
13 1484 14 2 
13 1488 14 2 
12 1484 14 2 
13 1483 14 2 
13 1490 14 2 
13 1483 14 2 
12 1488 14 2 
13 1484 14 2 
13 1483 14 2 
12 1490 14 2 
13 1483 14 2 
12 1488 14 2 
13 1487 14 2 
12 1484 14 2 
12 1489 14 2 
13 1484 14 2 
13 1483 14 2 
13 1489 14 2 
13 1483 14 2 
12 1488 14 2 
12 1484 14 2 
13 1483 14 2 
14 1489 14 2 
13 1483 14 2 
13 1487 14 2 
13 1483 14 2 
12 1483 14 2 
12 1488 14 2 
12 1483 14 2 
13 1489 14 2 
13 1483 14 2 
13 1483 14 2 
12 1488 14 2 
12 1484 14 2 
13 1483 14 2 
12 1490 14 2 
12 1483 14 2 
13 1488 14 2 
12 1484 14 2 
12 1484 14 2 
13 1490 14 2 
13 1483 14 2 
13 1488 14 2 
12 1484 14 2 
13 1483 14 2 
12 1488 14 2 
12 1483 14 2 
13 1483 14 2 
13 1484 14 2 
13 1484 14 2 
13 1487 14 2 
13 1484 14 2 
13 1483 14 2 
13 1489 14 2 
13 1483 14 2 
13 1488 14 2 
12 1483 14 2 
12 1483 14 2 
13 1489 14 2 
12 1483 14 2 
13 1488 14 2 
13 1483 14 2 
12 1484 14 2 
12 1489 14 2 
13 1483 14 2 
13 1483 14 2 
12 1489 14 2 
13 1483 14 2 
12 1486 14 2 
13 1483 14 2 
13 1483 14 2 
12 1489 14 2 
12 1483 14 2 
13 1487 14 2 
12 1483 14 2 
13 1483 14 2 
13 1487 14 2 
12 1483 14 2 
13 1487 14 2 
13 1483 14 2 
12 1483 14 2 
12 1487 14 2 
12 1483 14 2 
12 1484 14 2 
12 1489 14 2 
13 1484 14 2 
13 1488 14 2 
12 1483 14 2 
13 1484 14 2 
13 1489 14 2 
13 1483 14 2 
13 1488 14 2 
12 1483 14 2 
13 1483 14 2 
13 1487 14 2 
12 1484 15 2 
13 1483 14 2 
13 1490 14 2 
12 1484 14 2 
12 1487 14 2 
13 1484 14 2 
13 1483 14 2 
12 1489 14 2 
12 1484 14 2 
13 1488 14 2 
12 1483 14 2 
12 1483 14 2 
13 1488 14 2 
13 1483 14 2 
12 1488 14 2 
13 1484 14 2 
12 1484 14 2 
13 1491 14 2 
13 1483 14 2 
12 1483 14 2 
12 1490 14 2 
13 1483 14 2 
13 1491 14 2 
12 1483 14 2 
12 1483 14 2 
12 1491 14 2 
13 1484 14 2 
13 1488 14 2 
12 1483 14 2 
12 1483 14 2 
13 1488 14 2 
12 1483 14 2 
12 1483 14 2 
13 1489 14 2 
12 1483 14 2 
13 1487 14 2 
12 1483 14 2 
13 1483 14 2 
12 1490 14 2 
13 1483 14 2 
13 1487 14 2 
13 1483 14 2 
13 1483 14 2 
13 1490 14 2 
12 1483 14 2 
12 1488 14 2 
13 1483 14 2 
13 1484 14 2 
12 1487 14 2 
12 1483 14 2 
13 1484 14 2 
13 1488 14 2 
12 1484 14 2 
13 1488 14 2 
13 1483 14 2 
12 1483 14 2 
12 1489 14 2 
12 1483 14 2 
12 1495 14 2 
13 1483 14 2 
12 1483 14 2 
12 1487 14 2 
13 1483 14 2 
12 1483 14 2 
16 1484 14 2 
12 1483 14 2 
13 1487 14 2 
13 1483 14 2 
13 1483 14 2 
13 1488 14 2 
13 1483 14 2 
12 1487 14 2 
12 1483 14 2 
13 1483 14 2 
13 1490 14 2 
13 1483 14 2 
13 1487 14 2 
13 1486 18 2 
12 1484 14 2 
12 1488 14 2 
13 1483 14 2 
13 1483 14 2 
13 1488 14 2 
12 1483 14 2 
12 1487 14 2 
12 1483 14 2 
12 1483 14 2 
13 1488 14 2 
13 1483 14 2 
12 1488 14 2 
13 1484 14 2 
13 1483 14 2 
13 1488 14 2 
13 1483 14 2 
12 1483 14 2 
13 1483 14 2 
13 1483 14 2 
12 1487 14 2 
13 1483 14 2 
13 1483 14 2 
12 1488 14 2 
12 1483 14 2 
12 1487 14 2 
13 1483 14 2 
13 1483 14 2 
12 1488 14 2 
12 1483 14 2 
12 1488 14 2 
13 1483 14 2 
12 1483 14 2 
13 1488 14 2 
12 1483 14 2 
12 1483 14 2 
13 1483 14 2 
12 1483 14 2 
12 1487 14 2 
12 1483 14 2 
13 1486 14 2 
13 1488 14 2 
12 1483 14 2 
13 1488 14 2 
12 1483 14 2 
13 1483 14 2 
12 1489 14 2 
12 1484 14 2 
13 1488 14 2 
13 1484 14 2 
13 1483 14 2 
12 1488 14 2 
13 1483 14 2 
13 1484 14 2 
13 1490 14 2 
13 1483 14 2 
13 1488 14 2 
12 1483 14 2 
13 1483 14 2 
13 1489 14 2 
12 1483 14 2 
12 1488 14 2 
12 1483 14 2 
13 1483 14 2 
13 1488 14 2 
13 1483 14 2 
12 1487 14 2 
13 1485 14 2 
13 1484 14 2 
13 1489 14 2 
13 1483 14 2 
13 1483 14 2 
13 1489 14 2 
12 1483 14 2 
13 1487 14 2 
13 1484 14 2 
12 1483 14 2 
13 1492 14 2 
13 1483 14 2 
12 1488 14 2 
13 1483 14 2 
13 1483 14 2 
12 1488 14 2 
12 1483 14 2 
12 1483 14 2 
12 1488 14 2 
13 1483 14 2 
13 1487 14 2 
13 1483 14 2 
13 1483 14 2 
12 1488 14 2 
12 1483 14 2 
12 1487 15 2 
12 1484 14 2 
13 1484 14 2 
12 1490 14 2 
13 1484 14 2 
13 1488 14 2 
13 1483 14 2 
12 1483 14 2 
12 1487 14 2 
12 1483 14 2 
13 1483 14 2 
13 1488 14 2 
13 1483 14 2 
13 1487 14 2 
12 1484 14 2 
13 1485 14 2 
13 1489 14 2 
12 1483 14 2 
12 1487 14 2 
12 1483 14 2 
12 1483 14 2 
13 1488 14 2 
12 1483 14 2 
13 1483 14 2 
13 1484 14 2 
13 1483 14 2 
13 1488 14 2 
13 1483 14 2 
12 1483 14 2 
12 1490 14 2 
13 1483 14 2 
13 1487 14 2 
13 1484 14 2 
13 1483 14 2 
13 1494 15 2 
13 1486 14 2 
12 1489 14 2 
12 1483 14 2 
13 1483 14 2 
13 1488 14 2 
13 1485 14 2 
13 1483 14 2 
12 1488 14 2 
13 1483 14 2 
13 1491 14 2 
13 1483 14 2 
13 1483 14 2 
12 1489 14 2 
12 1483 14 2 
13 1488 14 2 
13 1483 14 2 
12 1483 14 2 
12 1489 14 2 
13 1483 14 2 
13 1487 14 2 
13 1484 14 2 
12 1486 14 2 
13 1487 14 2 
12 1483 14 2 
12 1483 14 2 
12 1483 14 2 
12 1483 14 2 
13 1488 14 2 
12 1483 14 2 
12 1483 14 2 
13 1489 14 2 
12 1483 14 2 
12 1487 14 2 
13 1483 14 2 
12 1483 14 2 
12 1488 14 2 
12 1483 14 2 
12 1487 14 2 
12 1483 14 2 
13 1483 14 2 
12 1496 14 2 
13 1483 14 2 
12 1483 14 2 
13 1489 14 2 
13 1483 14 2 
12 1487 14 2 
13 1484 14 2 
12 1483 14 2 
13 1489 14 2 
13 1483 14 2 
13 1487 14 2 
13 1483 14 2 
12 1483 14 2 
12 1487 14 2 
12 1483 14 2 
12 1487 15 2 
13 1483 14 2 
13 1483 14 2 
13 1487 14 2 
12 1483 14 2 
12 1483 14 2 
13 1488 14 2 
13 1483 14 2 
13 1487 14 2 
13 1483 14 2 
12 1483 14 2 
12 1488 14 2 
13 1483 14 2 
13 1495 14 2 
13 1485 14 2 
13 1484 14 2 
12 1489 14 2 
12 1483 14 2 
12 1483 14 2 
12 1489 14 2 
13 1483 14 2 
12 1487 14 2 
13 1483 14 2 
13 1483 14 2 
13 1488 14 2 
13 1484 14 2 
12 1489 14 2 
13 1483 14 2 
13 1483 14 2 
13 1488 14 2 
13 1483 14 2 
12 1488 14 2 
13 1483 14 2 
12 1483 14 2 
13 1488 14 2 
12 1483 14 2 
12 1484 14 2 
12 1489 14 2 
13 1483 14 2 
13 1488 14 2 
13 1483 14 2 
13 1483 14 2 
13 1489 14 2 
13 1483 14 2 
12 1488 14 2 
12 1483 14 2 
13 1483 14 2 
13 1487 14 2 
13 1483 14 2 
13 1483 14 2 
12 1489 14 2 
13 1484 14 2 
12 1488 14 2 
12 1483 14 2 
13 1483 14 2 
12 1488 14 2 
12 1483 14 2 
12 1488 14 2 
12 1486 14 2 
13 1484 14 2 
13 1489 14 2 
13 1483 14 2 
13 1487 14 2 
12 1484 14 2 
12 1483 14 2 
13 1487 14 2 
13 1483 14 2 
12 1483 14 2 
12 1488 14 2 
13 1483 14 2 
13 1489 14 2 
12 1484 14 2 
13 1483 14 2 
13 1489 14 2 
13 1483 14 2 
12 1486 14 2 
13 1483 14 2 
12 1484 14 2 
12 1487 14 2 
13 1484 14 2 
12 1483 14 2 
12 1488 14 2 
13 1483 14 2 
13 1489 14 2 
13 1483 14 2 
12 1483 14 2 
12 1489 14 2 
13 1483 14 2 
12 1488 14 2 
12 1483 14 2 
13 1483 14 2 
13 1489 14 2 
12 1483 14 2 
12 1487 14 2 
13 1483 14 2 
12 1483 14 2 
12 1490 14 2 
12 1484 14 2 
13 1483 14 2 
13 1489 14 2 
13 1483 14 2 
12 1490 14 2 
13 1483 14 2 
13 1483 14 2 
12 1489 14 2 
13 1483 14 2 
13 1487 14 2 
13 1483 14 2 
12 1483 14 2 
13 1488 14 2 
12 1483 14 2 
13 1483 14 2 
17 1484 14 2 
13 1483 14 2 
13 1488 14 2 
13 1483 14 2 
12 1483 14 2 
13 1490 14 2 
13 1483 14 2 
12 1488 14 2 
13 1483 14 2 
13 1483 14 2 
13 1489 14 2 
13 1483 14 2 
13 1490 14 2 
13 1483 14 2 
13 1483 14 2 
12 1487 14 2 
13 1483 14 2 
12 1483 14 2 
12 1496 14 2 
13 1484 14 2 
13 1488 14 2 
13 1483 14 2 
12 1483 14 2 
13 1489 14 2 
12 1483 14 2 
12 1489 14 2 
13 1483 14 2 
13 1483 14 2 
13 1487 14 2 
13 1486 14 2 
13 1484 20 2 
13 1484 14 2 
15 1488 16 2 
13 1492 14 2 
13 1486 14 2 
13 1490 14 2 
12 1488 14 2 
13 1486 14 2 
12 1492 14 2 
13 1485 14 2 
13 1490 14 2 
13 1486 14 2 
13 1485 14 2 
13 1494 14 2 
12 1486 14 2 
13 1490 14 2 
12 1486 14 2 
13 1486 14 2 
12 1490 14 2 
12 1486 14 2 
13 1485 14 2 
13 1495 14 2 
13 1485 14 2 
12 1490 14 2 
12 1486 14 2 
13 1486 14 2 
13 1491 14 2 
12 1485 14 2 
12 1490 14 2 
12 1485 14 2 
12 1485 14 2 
12 1492 14 2 
13 1485 14 2 
12 1490 14 2 
13 1485 14 2 
13 1486 14 2 
12 1491 14 2 
13 1486 14 2 
12 1485 14 2 
12 1491 14 2 
12 1486 14 2 
12 1490 14 2 
13 1486 14 2 
12 1492 17 2 
12 1492 14 2 
13 1485 14 2 
13 1489 14 2 
13 1485 14 2 
13 1485 14 2 
12 1491 14 2 
12 1485 14 2 
12 1486 14 2 
12 1490 14 2 
12 1485 14 2 
13 1490 14 2 
12 1485 14 2 
13 1485 14 2 
12 1491 14 2 
13 1486 14 2 
12 1490 14 2 
12 1486 14 2 
13 1486 14 2 
13 1492 14 2 
13 1486 14 2 
13 1490 14 2 
12 1486 14 2 
13 1486 14 2 
13 1490 14 2 
12 1486 14 2 
12 1488 14 2 
12 1491 14 2 
12 1486 14 2 
13 1491 14 2 
12 1485 14 2 
12 1485 14 2 
12 1491 14 2 
13 1486 14 2 
12 1490 14 2 
12 1485 14 2 
12 1486 14 2 
12 1490 14 2 
13 1485 14 2 
12 1489 14 2 
12 1486 14 2 
13 1485 14 2 
13 1490 14 2 
13 1486 14 2 
12 1485 14 2 
13 1491 14 2 
13 1485 14 2 
13 1490 14 2 
13 1485 14 2 
13 1485 14 2 
13 1490 14 2 
12 1486 14 2 
13 1490 14 2 
13 1485 14 2 
13 1486 14 2 
12 1489 14 2 
12 1485 14 2 
12 1490 14 2 
12 1485 14 2 
13 1485 14 2 
13 1490 14 2 
12 1486 14 2 
12 1486 14 2 
12 1494 14 2 
12 1486 14 2 
12 1490 14 2 
13 1485 14 2 
13 1488 14 2 
12 1492 14 2 
13 1485 14 2 
13 1490 14 2 
13 1489 14 2 
12 1485 14 2 
12 1490 14 2 
13 1485 14 2 
12 1494 14 2 
12 1486 14 2 
12 1485 14 2 
13 1490 14 2 
13 1486 14 2 
12 1485 14 2 
13 1493 14 2 
13 1486 14 2 
13 1489 14 2 
12 1486 14 2 
12 1485 14 2 
12 1490 14 2 
13 1486 14 2 
13 1490 14 2 
12 1486 14 2 
13 1486 14 2 
13 1491 14 2 
12 1486 14 2 
12 1491 15 2 
13 1487 14 2 
13 1486 14 2 
12 1490 14 2 
12 1487 14 2 
12 1486 14 2 
12 1493 14 2 
13 1489 14 2 
12 1490 14 2 
12 1486 14 2 
13 1485 14 2 
13 1492 14 2 
13 1486 14 2 
13 1490 14 2 
13 1487 14 2 
13 1485 14 2 
13 1493 14 2 
13 1486 14 2 
12 1490 14 2 
12 1486 14 2 
12 1487 14 2 
12 1490 14 2 
12 1486 14 2 
12 1485 14 2 
12 1492 14 2 
13 1486 14 2 
12 1490 14 2 
13 1486 14 2 
13 1486 14 2 
12 1492 14 2 
12 1486 14 2 
13 1490 14 2 
13 1486 14 2 
12 1486 14 2 
12 1490 14 2 
12 1489 14 2 
12 1486 14 2 
12 1493 14 2 
13 1485 14 2 
13 1491 14 2 
12 1486 14 2 
13 1486 14 2 
13 1490 14 2 
12 1485 14 2 
12 1490 14 2 
13 1486 14 2 
13 1485 14 2 
12 1494 14 2 
13 1485 14 2 
13 1490 14 2 
12 1487 14 2 
12 1485 14 2 
12 1490 14 2 
12 1486 14 2 
13 1485 14 2 
12 1492 14 2 
12 1486 14 2 
13 1491 14 2 
12 1486 14 2 
13 1486 14 2 
12 1492 14 2 
13 1486 14 2 
12 1490 14 2 
12 1486 14 2 
13 1486 14 2 
12 1493 14 2 
13 1485 14 2 
13 1491 14 2 
12 1486 14 2 
12 1485 14 2 
12 1494 14 2 
12 1487 14 2 
13 1486 14 2 
12 1491 14 2 
12 1485 14 2 
12 1490 14 2 
13 1485 14 2 
12 1486 14 2 
13 1494 14 2 
12 1486 14 2 
12 1490 14 2 
12 1486 14 2 
13 1485 14 2 
12 1491 14 2 
13 1485 14 2 
13 1490 14 2 
12 1486 14 2 
13 1485 14 2 
13 1492 14 2 
12 1485 14 2 
13 1485 14 2 
12 1491 14 2 
12 1485 14 2 
12 1490 14 2 
12 1486 14 2 
13 1485 14 2 
12 1491 14 2 
13 1486 14 2 
12 1490 14 2 
12 1486 14 2 
13 1485 14 2 
12 1490 14 2 
12 1486 14 2 
13 1491 14 2 
12 1486 14 2 
12 1485 14 2 
13 1490 14 2 
13 1486 14 2 
13 1485 14 2 
12 1492 14 2 
12 1485 14 2 
12 1490 14 2 
13 1487 14 2 
13 1486 14 2 
13 1493 14 2 
12 1487 14 2 
13 1491 14 2 
13 1486 14 2 
12 1486 14 2 
12 1491 14 2 
13 1487 14 2 
12 1490 14 2 
12 1486 14 2 
13 1486 14 2 
12 1490 14 2 
12 1486 14 2 
13 1486 14 2 
12 1492 14 2 
12 1486 14 2 
13 1492 14 2 
12 1486 14 2 
12 1485 14 2 
12 1492 14 2 
13 1486 14 2 
12 1489 14 2 
12 1486 14 2 
13 1485 14 2 
12 1491 14 2 
13 1486 14 2 
13 1490 14 2 
12 1486 14 2 
13 1486 14 2 
12 1490 14 2 
13 1486 14 2 
13 1485 14 2 
12 1491 14 2 
12 1486 14 2 
12 1492 14 2 
12 1486 14 2 
12 1485 14 2 
12 1490 14 2 
12 1485 14 2 
12 1490 14 2 
12 1487 14 2 
13 1486 14 2 
13 1490 14 2 
12 1486 14 2 
12 1486 14 2 
13 1491 14 2 
12 1485 14 2 
12 1490 14 2 
13 1485 14 2 
13 1485 14 2 
12 1492 14 2 
12 1486 14 2 
12 1491 14 2 
13 1486 14 2 
13 1485 14 2 
12 1493 14 2 
13 1486 14 2 
12 1494 14 2 
13 1486 14 2 
13 1486 14 2 
12 1490 14 2 
12 1485 14 2 
12 1485 14 2 
12 1491 14 2 
12 1486 14 2 
13 1489 14 2 
12 1487 14 2 
12 1485 14 2 
13 1492 14 2 
12 1486 14 2 
12 1491 14 2 
13 1486 14 2 
13 1486 14 2 
12 1490 14 2 
13 1486 14 2 
12 1490 14 2 
12 1487 14 2 
13 1486 14 2 
13 1490 14 2 
12 1485 14 2 
13 1485 14 2 
12 1493 14 2 
13 1485 14 2 
13 1489 14 2 
12 1486 14 2 
12 1485 14 2 
13 1492 14 2 
12 1485 14 2 
13 1490 14 2 
13 1486 14 2 
12 1485 14 2 
13 1491 14 2 
13 1486 14 2 
12 1491 14 2 
12 1486 14 2 
13 1485 14 2 
13 1490 14 2 
13 1485 14 2 
12 1485 14 2 
12 1492 14 2 
12 1485 14 2 
12 1489 14 2 
12 1485 14 2 
13 1485 14 2 
13 1490 14 2 
13 1485 14 2 
13 1490 14 2 
13 1486 14 2 
12 1485 14 2 
12 1490 14 2 
12 1486 14 2 
12 1485 14 2 
12 1491 14 2 
13 1485 14 2 
12 1489 14 2 
12 1485 14 2 
12 1485 14 2 
12 1508 14 2 
13 1486 14 2 
13 1490 14 2 
13 1486 14 2 
12 1485 14 2 
12 1491 14 2 
12 1486 14 2 
12 1489 14 2 
13 1486 14 2 
13 1485 14 2 
12 1490 14 2 
13 1485 14 2 
13 1485 14 2 
12 1491 14 2 
12 1486 14 2 
13 1490 14 2 
13 1485 14 2 
12 1486 14 2 
12 1490 14 2 
13 1485 14 2 
12 1490 14 2 
13 1485 14 2 
13 1485 14 2 
13 1489 14 2 
13 1485 14 2 
13 1487 19 2 
13 1486 14 2 
13 1485 14 2 
13 1490 14 2 
13 1486 14 2 
12 1485 14 2 
12 1490 14 2 
12 1485 14 2 
12 1490 14 2 
12 1485 14 2 
13 1485 14 2 
13 1491 14 2 
13 1486 14 2 
12 1490 14 2 
13 1486 14 2 
12 1489 14 2 
13 1492 14 2 
12 1485 14 2 
12 1490 14 2 
13 1485 14 2 
13 1485 14 2 
12 1490 14 2 
13 1485 14 2 
12 1486 14 2 
13 1495 14 2 
13 1486 14 2 
13 1491 14 2 
12 1485 14 2 
12 1486 14 2 
13 1491 14 2 
12 1485 14 2 
13 1490 14 2 
12 1487 14 2 
13 1485 14 2 
12 1491 14 2 
12 1486 14 2 
13 1489 14 2 
12 1486 14 2 
12 1486 14 2 
13 1489 14 2 
13 1486 14 2 
12 1486 14 2 
13 1493 14 2 
12 1486 14 2 
12 1490 14 2 
12 1486 14 2 
12 1486 14 2 
13 1492 14 2 
13 1486 14 2 
12 1491 14 2 
12 1486 14 2 
13 1487 14 2 
12 1492 14 2 
12 1487 14 2 
13 1486 14 2 
17 1487 14 2 
13 1487 14 2 
13 1492 14 2 
12 1487 14 2 
12 1486 14 2 
12 1491 14 2 
13 1486 14 2 
13 1492 14 2 
13 1486 14 2 
13 1486 14 2 
12 1493 14 2 
12 1486 14 2 
12 1490 14 2 
12 1487 14 2 
13 1486 14 2 
13 1490 14 2 
13 1486 14 2 
12 1485 14 2 
13 1486 14 2 
12 1487 14 2 
13 1493 14 2 
12 1486 14 2 
12 1485 14 2 
13 1491 14 2 
13 1486 14 2 
12 1490 14 2 
13 1486 14 2 
12 1485 14 2 
12 1493 14 2 
12 1486 14 2 
12 1490 14 2 
12 1486 14 2 
12 1485 14 2 
13 1490 14 2 
13 1486 14 2 
12 1486 14 2 
13 1486 14 2 
13 1486 14 2 
13 1490 14 2 
12 1486 14 2 
12 1486 14 2 
12 1492 14 2 
13 1486 14 2 
13 1490 14 2 
12 1486 14 2 
12 1485 14 2 
13 1492 14 2 
13 1485 14 2 
13 1490 14 2 
12 1500 14 2 
12 1485 14 2 
13 1500 14 2 
12 1485 14 2 
13 1485 14 2 
12 1492 14 2 
12 1485 14 2 
13 1489 14 2 
13 1486 14 2 
13 1486 14 2 
13 1492 14 2 
13 1490 14 2 
12 1491 14 2 
12 1486 14 2 
12 1485 14 2 
13 1491 14 2 
13 1485 14 2 
13 1489 14 2 
13 1486 14 2 
13 1489 14 2 
15 1490 14 2 
13 1486 14 2 
13 1490 14 2 
12 1486 14 2 
13 1485 14 2 
13 1490 14 2 
12 1485 14 2 
13 1485 14 2 
12 1493 14 2 
13 1489 14 2 
13 1490 14 2 
13 1485 14 2 
13 1485 14 2 
13 1491 14 2 
12 1486 14 2 
13 1493 14 2 
13 1486 14 2 
13 1486 14 2 
13 1489 14 2 
13 1485 14 2 
13 1485 14 2 
13 1490 14 2 
13 1486 14 2 
12 1488 14 2 
12 1485 14 2 
13 1486 14 2 
13 1492 14 2 
13 1485 14 2 
13 1490 14 2 
13 1485 14 2 
12 1485 14 2 
13 1495 14 2 
13 1485 14 2 
13 1490 14 2 
13 1486 14 2 
13 1485 14 2 
13 1491 14 2 
13 1485 14 2 
13 1486 14 2 
13 1490 14 2 
13 1486 14 2 
13 1489 14 2 
12 1485 14 2 
13 1485 14 2 
12 1491 14 2 
12 1485 14 2 
13 1490 14 2 
13 1486 14 2 
12 1485 14 2 
12 1489 14 2 
12 1485 14 2 
13 1485 14 7 
13 1486 14 2 
13 1486 14 2 
13 1489 14 2 
13 1486 14 2 
12 1485 14 2 
13 1490 14 2 
13 1485 14 2 
13 1490 14 2 
12 1486 14 2 
12 1485 14 2 
12 1491 14 2 
13 1485 14 2 
13 1491 14 2 
12 1486 14 2 
12 1485 14 2 
13 1490 14 2 
12 1485 14 2 
13 1485 14 2 
13 1486 14 2 
12 1485 14 2 
12 1489 14 2 
13 1485 14 2 
13 1486 14 2 
13 1491 14 2 
13 1486 14 2 
12 1490 14 2 
12 1485 14 2 
13 1485 14 2 
13 1491 14 2 
12 1485 14 2 
12 1490 14 2 
13 1485 14 2 
12 1485 14 2 
13 1489 14 2 
12 1485 14 2 
13 1485 14 2 
12 1485 14 2 
12 1486 14 2 
13 1490 14 2 
13 1488 14 2 
12 1486 14 2 
13 1491 14 2 
12 1485 14 2 
13 1489 14 2 
13 1486 14 2 
12 1485 14 2 
12 1493 14 2 
12 1487 14 2 
13 1491 14 2 
13 1485 14 2 
12 1485 14 2 
13 1490 14 2 
12 1485 14 2 
12 1486 14 2 
12 1491 14 2 
13 1486 14 2 
13 1490 14 2 
13 1485 14 2 
12 1485 14 2 
12 1491 14 2 
12 1486 14 2 
13 1490 14 2 
13 1485 14 2 
12 1486 14 2 
13 1489 14 2 
13 1485 14 2 
13 1490 14 2 
13 1485 14 2 
12 1485 14 2 
12 1489 14 2 
12 1486 14 2 
12 1485 14 2 
13 1490 14 2 
13 1486 14 2 
12 1489 14 2 
13 1486 14 2 
12 1486 14 2 
12 1492 14 2 
13 1486 14 2 
12 1490 14 2 
13 1485 14 2 
12 1486 14 2 
13 1490 14 2 
12 1486 14 2 
13 1486 14 2 
13 1490 14 2 
13 1488 14 2 
13 1489 14 2 
13 1485 14 2 
13 1486 14 2 
12 1501 14 2 
13 1490 15 2 
13 1490 14 2 
13 1485 14 2 
12 1485 14 2 
13 1490 14 2 
12 1486 14 2 
12 1489 14 2 
13 1485 14 2 
13 1485 14 2 
12 1490 14 2 
12 1486 14 2 
13 1485 14 2 
13 1491 14 2 
13 1486 14 2 
13 1490 14 2 
12 1485 14 2 
13 1485 14 2 
12 1491 14 2 
12 1485 14 2 
13 1493 14 2 
13 1485 14 2 
13 1486 14 2 
13 1490 14 2 
12 1485 14 2 
13 1491 14 2 
13 1485 14 2 
13 1486 14 2 
13 1495 14 2 
12 1487 14 2 
13 1489 14 2 
13 1494 14 2 
13 1485 14 2 
12 1490 14 2 
12 1488 14 2 
13 1485 14 2 
13 1492 14 2 
12 1485 14 2 
12 1492 14 2 
13 1485 14 2 
13 1486 14 2 
12 1489 14 2 
13 1486 14 2 
12 1490 14 2 
12 1485 14 2 
13 1485 14 2 
13 1490 14 2 
12 1485 14 2 
13 1485 14 2 
13 1495 14 2 
12 1486 14 2 
13 1490 14 2 
12 1486 14 2 
13 1489 14 2 
12 1491 14 2 
13 1486 14 2 
12 1490 14 2 
13 1495 14 2 
13 1486 14 2 
12 1490 14 2 
13 1486 14 2 
13 1490 14 2 
13 1486 14 2 
13 1486 14 2 
13 1490 14 2 
13 1485 14 2 
13 1486 14 2 
13 1491 14 2 
12 1486 14 2 
13 1490 14 2 
12 1485 14 2 
12 1485 14 3 
12 1492 14 2 
13 1485 14 2 
13 1490 14 2 
12 1485 14 2 
13 1485 14 2 
13 1489 14 2 
13 1485 14 2 
12 1489 14 2 
13 1485 14 2 
12 1486 14 2 
12 1489 14 2 
13 1486 14 2 
12 1486 14 2 
12 1491 14 2 
12 1486 14 2 
13 1489 14 2 
13 1485 14 2 
12 1485 14 2 
13 1491 14 2 
12 1486 14 2 
13 1489 14 2 
12 1486 14 2 
13 1487 14 2 
13 1490 14 2 
13 1485 14 2 
13 1486 14 5 
13 1485 14 2 
12 1485 14 2 
13 1493 14 2 
12 1486 14 2 
12 1485 14 2 
12 1493 14 2 
13 1485 14 2 
13 1489 14 2 
13 1485 14 2 
12 1485 14 2 
13 1491 14 2 
13 1485 14 2 
13 1491 14 2 
13 1485 14 2 
12 1485 14 2 
13 1489 14 2 
13 1485 14 2 
13 1485 14 2 
13 1491 14 2 
12 1485 14 2 
12 1489 14 2 
12 1485 14 2 
12 1485 14 2 
13 1492 14 2 
12 1485 14 2 
13 1489 14 2 
13 1485 14 2 
13 1485 14 2 
12 1491 14 2 
12 1486 14 2 
12 1490 14 2 
12 1488 16 2 
13 1488 14 2 
13 1500 14 2 
12 1486 14 2 
13 1485 14 2 
12 1500 14 2 
12 1486 14 2 
12 1490 14 2 
13 1486 14 2 
12 1485 14 2 
12 1491 14 2 
13 1485 14 2 
13 1489 14 2 
12 1485 14 2 
12 1485 14 2 
12 1489 14 2 
13 1485 14 2 
13 1490 14 2 
12 1485 14 2 
13 1485 14 2 
13 1493 14 2 
13 1485 14 2 
13 1485 14 2 
13 1495 14 2 
13 1485 14 2 
12 1489 14 2 
13 1485 14 2 
12 1487 14 2 
13 1494 14 2 
12 1485 14 2 
13 1489 14 2 
12 1497 14 2 
12 1486 14 2 
12 1491 14 2 
12 1485 14 2 
12 1515 14 2 
12 1485 14 2 
13 1485 14 2 
12 1491 14 2 
12 1485 14 2 
12 1485 14 2 
13 1491 14 2 
12 1485 14 2 
12 1489 14 2 
13 1485 14 2 
12 1485 14 2 
13 1491 14 2 
12 1485 14 2 
12 1489 14 2 
13 1485 14 2 
13 1485 14 2 
12 1490 14 2 
13 1485 14 2 
13 1485 14 2 
12 1485 14 2 
12 1485 14 2 
13 1490 14 2 
13 1485 14 2 
12 1485 14 2 
12 1491 14 2 
13 1485 14 2 
12 1489 14 2 
12 1485 14 2 
12 1485 14 2 
12 1491 14 2 
13 1486 14 2 
12 1489 14 2 
13 1486 14 2 
13 1485 14 2 
12 1489 14 2 
12 1485 14 2 
12 1485 14 2 
16 1486 14 2 
13 1486 14 2 
12 1492 14 2 
13 1485 14 2 
13 1485 14 2 
13 1491 14 2 
12 1485 14 2 
12 1489 14 2 
12 1485 14 2 
13 1486 14 2 
13 1489 14 2 
12 1486 14 2 
12 1490 14 2 
13 1485 14 2 
13 1485 14 2 
12 1489 14 2 
12 1485 14 2 
12 1486 14 2 
13 1494 14 2 
13 1486 14 2 
13 1490 14 2 
12 1486 14 2 
12 1486 14 2 
13 1491 14 2 
12 1485 14 2 
13 1489 14 2 
12 1485 14 2 
12 1486 14 2 
12 1489 14 2 
12 1485 14 2 
12 1489 14 2 
13 1485 14 2 
13 1486 14 2 
12 1489 14 2 
12 1485 14 2 
12 1485 14 2 
13 1491 14 2 
12 1485 14 2 
13 1489 14 2 
12 1486 14 2 
13 1485 14 2 
12 1491 14 2 
13 1486 14 2 
13 1490 14 2 
13 1485 14 2 
12 1485 14 2 
13 1490 14 2 
12 1486 14 2 
13 1493 14 2 
12 1486 14 2 
12 1485 14 2 
13 1490 14 2 
13 1485 14 2 
12 1486 14 2 
12 1492 14 2 
12 1485 14 2 
12 1489 14 2 
13 1486 14 2 
13 1485 14 2 
12 1491 14 2 
12 1486 14 2 
12 1488 14 2 
12 1485 14 2 
13 1485 14 2 
12 1489 14 2 
13 1485 14 2 
12 1485 14 2 
12 1489 14 2 
13 1485 14 2 
13 1490 14 2 
12 1485 14 2 
12 1485 14 2 
12 1491 14 2 
13 1485 14 2 
13 1489 14 2 
13 1485 14 2 
13 1485 14 2 
13 1491 14 2 
13 1485 14 2 
13 1489 14 2 
13 1485 14 2 
13 1485 14 2 
12 1491 14 2 
12 1486 14 2 
13 1485 14 2 
12 1493 14 2 
13 1485 14 2 
12 1490 14 2 
13 1485 14 2 
13 1485 14 2 
12 1491 14 2 
13 1486 14 2 
12 1490 14 2 
13 1485 14 2 
13 1486 14 2 
13 1490 14 2 
12 1485 14 2 
13 1485 14 2 
12 1486 14 2 
13 1485 14 2 
13 1489 14 2 
13 1485 14 2 
12 1485 14 2 
12 1491 14 2 
13 1485 14 2 
13 1489 14 2 
12 1486 14 2 
12 1485 14 2 
13 1491 14 2 
12 1485 14 2 
12 1490 14 2 
13 1485 14 2 
12 1485 14 2 
13 1489 14 2 
13 1485 14 2 
13 1485 14 2 
13 1489 14 2 
13 1485 14 2 
13 1488 14 2 
12 1485 14 2 
13 1485 14 2 
12 1491 14 2 
12 1485 14 2 
13 1490 14 2 
13 1485 14 2 
13 1485 14 2 
13 1490 14 2 
13 1485 14 2 
13 1489 14 2 
13 1485 14 2 
13 1486 14 2 
13 1489 14 2 
12 1485 14 2 
13 1486 14 2 
